proyfinal/src/viki/013/experimentInOfficeAgust.take6.output/5c8bd422-f6c5-41b6-ac96-522a0f8061e6.als.dat
{'cnf.clauses': '118081',
 'cnf.totvars': '69608',
 'conflict literals': '1274',
 'conflicts': '166',
 'decisions': '8920',
 'memused.mb': '16.09',
 'outcome': 'UNSAT',
 'propagations': '212874',
 'restarts': '2',
 'solver.msecs': 39,
 'task.msecs': 234}
