proyfinal/src/viki/013/experimentInOfficeAgust.take6.output/5c8bd422-f6c5-41b6-ac96-522a0f8061e6.als.out
Reading from standard input... Use '--help' for help.
============================[ Problem Statistics ]=============================
|                                                                             |
|  Number of variables:         69608                                         |
|  Number of clauses:          118081                                         |
|  Parse time:                   0.03 s                                       |
|                                                                             |
============================[ Search Statistics ]==============================
| Conflicts |          ORIGINAL         |          LEARNT          | Progress |
|           |    Vars  Clauses Literals |    Limit  Clauses Lit/Cl |          |
===============================================================================
|       100 |   56680    80595   199633 |    29551       96      7 | 18.573 % |
===============================================================================
restarts              : 2
conflicts             : 166            (4224 /sec)
decisions             : 8920           (0.00 % random) (226995 /sec)
propagations          : 212874         (5417193 /sec)
conflict literals     : 1274           (21.45 % deleted)
Memory used           : 16.09 MB
CPU time              : 0.039296 s

UNSATISFIABLE
